NAME: S101D2_25
COMMENT: 1437.42
VEHICLE: 20
TIME: 239.8597
DIMENSION: 101
CAPACITY: 160
DELIVERY_SECTION
0 0 0
1 1 16
2 1 16
3 1 1.6
4 1 1.6
5 1 1.6
6 1 1.2
7 2 16
8 2 1.6
9 2 0.4
10 3 16
11 3 8
12 3 1.6
13 3 1.6
14 3 1.6
15 3 1.6
16 3 0.6
17 4 16
18 4 8
19 5 16
20 5 8
21 5 1.6
22 5 0.4
23 6 16
24 6 1.6
25 6 0.4
26 7 40
27 7 1
28 8 16
29 8 1.6
30 8 1.6
31 8 1.6
32 8 1.6
33 8 0.6
34 9 16
35 9 1.6
36 9 0.4
37 10 16
38 10 1.6
39 10 0.4
40 11 40
41 11 1.6
42 11 1.6
43 11 1.6
44 11 1.6
45 11 0.6
46 12 16
47 12 1.6
48 12 1.6
49 12 1.6
50 12 0.2
51 13 16
52 13 8
53 13 1.6
54 13 1.6
55 13 1.6
56 13 1.2
57 14 16
58 14 1.6
59 14 0.4
60 15 40
61 15 1.6
62 15 1.6
63 15 1.6
64 15 1.2
65 16 16
66 16 1.6
67 16 0.4
68 17 40
69 18 16
70 18 1.6
71 18 1.4
72 19 16
73 19 16
74 19 1.6
75 19 1.6
76 19 1.6
77 19 1.6
78 19 0.6
79 20 16
80 21 40
81 21 1.6
82 21 1.6
83 21 1.6
84 21 0.2
85 22 16
86 22 1.6
87 22 1.6
88 22 0.8
89 23 16
90 23 8
91 23 1.6
92 23 1.4
93 24 16
94 24 1.6
95 24 1.6
96 24 1.6
97 24 0.2
98 25 40
99 25 1.6
100 25 1.6
101 25 1.6
102 25 1.6
103 25 0.6
104 26 16
105 26 1.6
106 26 1.6
107 26 1.6
108 26 0.2
109 27 16
110 27 1.6
111 27 0.4
112 28 16
113 28 8
114 28 1.6
115 28 1.4
116 29 40
117 29 1.6
118 29 1.6
119 29 1.6
120 29 1.6
121 29 0.6
122 30 16
123 30 1.6
124 30 1.6
125 30 1.6
126 30 1.6
127 30 0.6
128 31 16
129 31 8
130 31 1.6
131 31 1.6
132 31 1.6
133 31 1.6
134 31 0.6
135 32 16
136 32 16
137 32 1
138 33 40
139 33 1.6
140 33 1.6
141 33 0.8
142 34 16
143 34 8
144 34 1
145 35 40
146 35 1
147 36 16
148 36 16
149 36 1.6
150 36 1.6
151 36 1.6
152 36 1.6
153 36 0.6
154 37 40
155 38 16
156 38 8
157 38 1.6
158 38 1.6
159 38 0.8
160 39 40
161 39 1.6
162 39 1.6
163 39 1.6
164 39 1.2
165 40 40
166 40 1.6
167 40 1.6
168 40 0.8
169 41 16
170 41 16
171 41 1.6
172 41 1.6
173 41 0.8
174 42 16
175 42 8
176 42 1.6
177 42 1.6
178 42 1.6
179 42 1.6
180 42 0.6
181 43 40
182 43 1.6
183 43 1.6
184 43 1.6
185 43 1.6
186 43 0.6
187 44 40
188 44 1.6
189 44 1.6
190 44 1.6
191 44 1.6
192 44 0.6
193 45 16
194 45 16
195 46 16
196 46 16
197 46 1.6
198 46 1.4
199 47 40
200 47 1.6
201 47 1.6
202 47 1.6
203 47 0.2
204 48 40
205 48 1.6
206 48 1.6
207 48 1.6
208 48 1.6
209 48 0.6
210 49 16
211 49 8
212 49 1.6
213 49 1.6
214 49 0.8
215 50 16
216 50 16
217 50 1.6
218 50 1.6
219 50 1.6
220 50 1.6
221 50 0.6
222 51 40
223 52 40
224 52 1.6
225 52 0.4
226 53 16
227 53 8
228 53 1.6
229 53 0.4
230 54 40
231 54 1.6
232 54 1.4
233 55 16
234 55 16
235 55 1.6
236 55 0.4
237 56 16
238 56 16
239 56 1
240 57 16
241 57 1.6
242 57 1.6
243 57 1.6
244 57 1.6
245 57 0.6
246 58 40
247 58 1.6
248 58 1.6
249 58 1.6
250 58 1.2
251 59 16
252 59 8
253 59 1.6
254 59 1.6
255 59 0.8
256 60 16
257 60 1.6
258 60 1.6
259 60 0.8
260 61 16
261 61 1.6
262 61 1.6
263 61 1.6
264 61 0.2
265 62 40
266 62 1.6
267 62 1.6
268 62 1.6
269 62 1.6
270 62 0.6
271 63 16
272 63 1.6
273 63 1.6
274 63 1.6
275 63 1.2
276 64 16
277 64 8
278 64 1
279 65 16
280 65 1.6
281 65 1.6
282 65 0.8
283 66 40
284 66 1.6
285 66 1.6
286 66 1.6
287 66 1.2
288 67 16
289 67 1
290 68 16
291 68 16
292 68 1.6
293 68 1.6
294 68 1.6
295 68 0.2
296 69 16
297 69 1.6
298 69 1.4
299 70 40
300 70 1
301 71 16
302 71 1.6
303 71 0.4
304 72 40
305 72 1.6
306 72 1.6
307 72 1.6
308 72 0.2
309 73 16
310 73 1.6
311 73 0.4
312 74 16
313 74 16
314 75 16
315 75 1.6
316 75 1.6
317 75 1.6
318 75 0.2
319 76 40
320 76 1.6
321 76 1.6
322 76 1.6
323 76 1.6
324 76 0.6
325 77 16
326 77 1.6
327 77 0.4
328 78 16
329 78 1.6
330 78 1.6
331 78 0.8
332 79 16
333 79 1.6
334 79 1.6
335 79 1.6
336 79 1.6
337 79 0.6
338 80 40
339 80 1.6
340 80 1.4
341 81 16
342 81 1.6
343 81 0.4
344 82 16
345 82 8
346 83 16
347 83 1.6
348 83 1.6
349 83 1.6
350 83 1.6
351 83 0.6
352 84 16
353 84 16
354 85 16
355 85 1.6
356 85 0.4
357 86 16
358 86 16
359 86 1.6
360 86 1.6
361 86 1.6
362 86 0.2
363 87 16
364 87 1.6
365 87 1.6
366 87 1.6
367 87 1.6
368 87 0.6
369 88 16
370 88 1.6
371 88 1.4
372 89 16
373 89 1.6
374 89 0.4
375 90 40
376 90 1.6
377 90 1.6
378 90 1.6
379 90 0.2
380 91 16
381 91 1.6
382 91 1.6
383 91 1.6
384 91 1.2
385 92 16
386 92 8
387 92 1
388 93 16
389 93 1.6
390 93 0.4
391 94 40
392 94 1.6
393 94 1.6
394 94 1.6
395 94 1.6
396 94 0.6
397 95 16
398 95 1.6
399 95 1.6
400 95 0.8
401 96 16
402 96 16
403 96 1.6
404 96 1.6
405 96 0.8
406 97 16
407 97 1.6
408 97 0.4
409 98 40
410 98 1.6
411 98 1.4
412 99 16
413 99 1
414 100 40
415 100 1.6
416 100 1.4
PICKUP_SECTION
NODE_SECTION
35 35

41 49

35 17

55 45

55 20

15 30

25 30

20 50

10 43

55 60

30 60

20 65

50 35

30 25

15 10

30  5

10 20

 5 30

20 40

15 60

45 65

45 20

45 10

55  5

65 35

65 20

45 30

35 40

41 37

64 42

40 60

31 52

35 69

53 52

65 55

63 65

 2 60

20 20

 5  5

60 12

40 25

42  7

24 12

23  3

11 14

 6 38

 2 48

 8 56

13 52
 
6 68

47 47

49 58

27 43

37 31

57 29

63 23

53 12

32 12

36 26

21 24

17 34

12 24

24 58

27 69

15 77

62 77

49 73

67  5

56 39

37 47

37 56

57 68

47 16

44 17

46 13

49 11

49 42

53 43

61 52

57 48

56 37

55 54

15 47

14 37

11 31

16 22

 4 18

28 18

26 52

26 35

31 67

15 19

22 22

18 24

26 27

25 24

22 27

25 21

19 21

20 26

18 18
DISTANCE_SECTION
DEPOT_SECTION
0
EOF